100
128
56
18
25
14
22
20
58
29
22
64
13
19
14
21
24
11
39
15
26
21
54
46
30
52
27
15
15
57
42
14
10
44
32
1
11
25
14
50
27
16
53
21
53
48
20
21
16
10
25
40
16
27
56
40
45
32
48
20
4
56
22
32
64
31
32
29
27
40
25
35
21
51
23
54
47
44
26
58
33
51
64
64
43
64
64
32
40
56
35
52
44
34
50
40
64
64
36
40
52
64